CPXPARAM_MIP_Cuts_Gomory#P18#0#5.533564#1.000000
CPXPARAM_MIP_Cuts_Gomory#P18#1#2.971475#0.536991
CPXPARAM_MIP_Cuts_Gomory#P18#2#3.206956#0.579546
CPXPARAM_MIP_Strategy_Branch#P34#0#2.515423#0.454576
CPXPARAM_MIP_Strategy_Branch#P34#1#3.784972#0.684003
